InboundTrucks  = 80;
OutboundTrucks = 40;
InboundDoors   = 7;
OutboundDoors  = 7;
ReleaseTime    = [100,86,10,114,111,72,73,68,62,61,16,112,102,82,40,82,101,82,108,104,12,82,107,24,19,33,73,6,89,99,32,50,112,100,29,106,80,51,9,34,3,25,82,111,64,26,23,111,86,42,21,113,11,70,113,118,76,59,114,89,119,95,47,16,84,83,63,59,1,95,7,31,14,92,107,83,29,51,101,114];
UnloadTime     = [27,42,32,12,20,39,16,37,45,20,23,24,16,13,23,11,43,28,19,25,40,31,39,16,12,36,43,15,34,16,13,27,34,43,29,41,13,39,12,13,39,16,16,26,15,16,45,41,30,19,37,35,20,38,44,12,42,29,43,16,29,38,13,18,41,27,24,32,12,41,43,10,34,36,38,42,32,18,32,13];
LoadTime       = [30,11,19,14,16,12,5,22,28,16,28,30,29,20,6,28,16,13,13,17,23,28,8,15,18,6,29,17,17,13,17,29,26,15,10,6,26,12,26,26];
TransferTime   = [| 48,0,0,0,0,0,0,0,0,0,48,27,10,0,0,0,27,0,0,26,0,37,0,0,35,0,0,0,19,0,0,0,0,0,17,0,0,0,35,0 | 19,0,0,44,0,0,0,0,0,0,24,0,0,0,0,0,38,10,37,0,45,14,0,0,0,0,0,0,0,0,28,0,0,39,0,0,50,20,0,0 | 0,0,23,25,0,10,28,0,28,0,0,0,0,0,0,0,27,0,0,0,0,0,19,0,0,0,0,0,0,0,0,0,0,0,14,0,0,47,0,0 | 16,0,0,0,0,0,0,45,0,44,0,47,12,0,22,0,20,0,0,0,26,0,0,0,43,0,0,0,0,40,0,0,0,0,43,0,0,10,0,0 | 36,0,0,0,42,12,27,0,38,0,40,0,0,0,13,0,0,0,20,0,0,0,0,0,0,0,0,0,37,0,0,13,0,0,0,0,23,11,0,18 | 28,0,46,0,0,0,16,0,0,0,0,0,0,0,0,0,0,15,33,0,0,0,25,0,38,43,0,0,0,14,0,0,0,0,0,0,0,0,18,0 | 0,0,32,50,0,0,0,0,34,0,0,0,0,0,0,0,15,0,35,0,24,0,0,0,0,0,0,0,45,0,46,0,0,0,0,0,0,0,0,33 | 39,0,0,38,0,0,0,0,0,0,50,0,49,0,0,0,28,0,37,0,15,46,0,0,0,19,0,0,0,0,11,0,0,0,24,0,0,0,0,0 | 0,0,0,30,0,0,26,11,0,0,0,0,0,0,0,26,0,46,29,41,44,40,0,0,0,41,0,40,0,0,0,38,16,29,0,0,0,0,43,24 | 0,0,0,46,0,35,0,0,0,0,0,18,0,0,0,0,0,12,0,0,0,0,0,0,0,0,10,0,0,19,0,0,0,0,0,0,0,0,0,0 | 0,50,0,43,0,0,0,0,0,0,23,39,0,0,0,0,0,0,0,27,20,0,0,0,0,31,0,0,0,0,0,0,0,0,0,14,0,0,0,0 | 0,29,27,0,47,0,0,0,26,0,0,27,0,0,0,0,30,28,0,0,0,47,0,0,0,0,0,0,0,0,22,0,0,0,0,45,0,30,42,0 | 0,0,21,25,0,0,0,0,11,0,0,0,19,0,0,0,0,0,30,21,0,38,0,0,0,0,0,20,0,0,0,0,0,0,40,42,0,0,0,22 | 18,0,43,0,0,0,0,0,0,0,0,17,0,0,0,0,0,10,0,0,10,32,0,0,44,42,0,0,0,15,43,0,0,0,0,0,0,0,48,0 | 0,0,0,0,0,36,40,0,0,0,0,0,0,0,0,11,0,17,0,22,0,27,0,0,0,0,0,0,0,20,0,0,0,0,0,0,0,0,0,24 | 0,0,33,0,0,0,0,42,0,0,0,0,0,0,0,33,0,0,0,0,0,0,0,0,0,0,0,0,49,0,0,0,0,0,0,31,0,0,0,0 | 0,0,0,50,0,23,35,0,0,36,0,0,0,0,0,29,0,39,0,0,0,10,0,0,0,18,0,45,0,46,49,0,22,0,0,29,33,0,34,41 | 0,0,0,34,0,20,18,41,0,0,0,0,31,0,0,0,0,0,0,0,35,0,0,14,0,0,0,0,0,0,0,0,0,0,0,0,0,0,19,0 | 0,23,24,0,0,0,0,0,0,0,0,0,30,25,0,0,0,29,20,49,0,0,0,22,0,0,0,0,0,49,0,47,38,0,0,0,0,0,0,0 | 0,0,49,0,0,0,22,17,0,0,44,0,11,16,0,0,43,0,0,0,10,25,0,0,49,0,0,0,0,44,42,36,16,37,0,0,0,0,13,28 | 0,0,0,23,13,21,0,40,0,0,16,0,0,0,0,0,0,0,0,15,0,26,0,0,0,26,0,0,23,28,16,20,0,0,35,0,0,0,0,25 | 46,26,0,0,0,23,0,38,0,0,0,49,43,33,0,0,0,12,0,36,0,0,0,0,0,0,0,0,18,0,26,0,0,0,0,0,0,0,0,0 | 0,0,41,0,0,0,0,0,0,0,50,0,0,0,29,0,0,0,0,0,15,0,0,0,0,0,0,14,0,0,0,0,31,0,15,0,0,46,0,0 | 43,0,0,0,11,44,0,0,0,0,15,0,0,35,0,34,0,27,0,12,0,0,0,12,0,0,32,0,0,0,0,0,0,21,0,0,39,0,16,0 | 19,0,0,0,22,0,35,0,22,38,0,0,36,0,0,0,0,0,0,30,0,0,38,0,0,0,0,0,0,0,0,49,17,0,0,0,31,0,0,0 | 22,0,0,0,0,0,0,0,0,0,10,0,0,0,0,0,0,25,35,0,0,50,45,0,0,0,0,30,0,0,0,0,0,0,0,0,0,0,18,27 | 0,0,0,36,0,0,0,0,0,33,0,0,0,0,0,0,0,0,0,31,0,26,0,43,0,29,0,12,16,0,0,0,0,0,0,0,0,16,36,0 | 44,0,0,0,0,21,0,0,0,0,0,0,0,11,37,10,0,34,0,0,0,0,0,0,0,0,0,0,0,0,0,0,0,0,0,28,0,0,22,14 | 20,0,14,26,0,0,0,23,0,0,0,0,41,0,0,0,0,0,0,12,0,0,0,0,35,0,0,0,33,0,0,0,0,0,0,0,42,0,18,0 | 0,34,0,0,0,0,0,0,0,40,27,0,0,0,0,0,0,29,22,0,0,0,0,0,32,0,0,0,10,0,0,0,0,0,0,50,0,0,24,0 | 0,0,43,0,0,0,0,36,0,0,0,0,0,0,0,0,0,0,0,0,0,0,0,39,0,0,0,0,18,0,0,0,0,0,0,0,0,0,0,21 | 0,0,14,0,0,0,0,0,0,0,0,18,0,0,0,0,0,44,0,0,0,0,0,0,37,0,0,28,0,0,29,0,0,0,0,24,22,39,0,0 | 0,0,0,0,0,0,38,0,0,0,0,0,0,0,0,31,0,14,0,12,0,0,39,0,0,0,0,14,0,0,38,20,0,0,0,0,47,0,0,0 | 22,0,29,0,0,0,0,0,0,0,0,0,0,0,0,0,0,0,0,0,0,11,0,0,49,0,0,33,0,0,0,0,0,0,50,39,0,0,0,0 | 0,0,0,0,0,0,0,0,0,0,0,36,0,39,0,0,0,0,15,0,0,0,0,26,0,16,0,0,0,0,0,38,0,0,16,0,0,0,0,0 | 0,21,0,0,0,0,0,0,0,0,0,0,0,0,0,0,0,25,18,0,0,0,0,0,17,0,0,0,0,0,48,0,0,26,0,0,0,0,0,0 | 0,0,0,0,0,0,16,12,0,0,0,19,0,26,0,0,0,50,0,0,0,28,28,0,0,11,0,42,0,11,0,24,27,16,49,0,0,0,0,0 | 0,0,0,22,0,26,0,0,0,22,0,0,0,0,30,0,0,0,0,0,41,0,42,19,0,0,0,45,34,0,0,0,0,0,0,0,44,0,39,0 | 0,0,18,0,11,0,0,14,0,12,0,0,0,41,20,0,0,49,0,0,0,32,0,0,0,0,46,0,0,0,0,0,0,28,0,47,47,11,0,14 | 50,0,10,0,11,0,0,25,0,19,50,0,13,0,21,42,0,0,50,0,0,0,0,0,46,0,0,0,0,0,46,0,32,0,0,0,24,44,0,0 | 0,17,13,36,0,0,0,21,0,0,0,17,0,0,0,29,0,0,0,0,0,0,36,0,0,0,41,0,11,23,0,0,0,41,42,0,0,0,11,0 | 24,0,0,0,37,0,0,0,0,48,0,0,0,0,0,28,0,0,0,0,0,0,0,0,0,0,0,47,0,0,26,29,0,0,0,0,0,0,0,0 | 0,22,0,12,0,0,0,0,30,0,0,0,34,49,48,46,0,0,0,0,0,0,48,0,0,0,30,28,0,0,0,0,0,0,0,0,0,0,38,30 | 26,0,0,0,0,0,31,0,11,0,0,0,0,19,0,0,0,25,0,27,0,0,47,0,32,0,0,45,0,23,0,0,0,0,0,0,0,0,0,0 | 0,0,0,0,0,0,0,0,0,0,0,0,0,0,0,0,0,0,0,0,13,20,0,0,41,0,0,0,0,0,15,0,0,0,42,0,26,21,0,0 | 0,12,0,0,0,0,0,27,0,0,0,0,0,47,0,0,0,0,15,0,0,0,0,0,18,26,0,0,22,12,0,23,39,0,23,0,0,16,26,0 | 0,11,0,37,0,0,49,0,0,0,0,0,0,0,0,0,0,0,0,0,0,0,43,0,30,0,21,0,0,20,0,0,0,0,0,0,35,0,0,0 | 0,0,0,42,0,0,0,0,0,0,0,0,0,50,35,0,0,0,18,16,22,35,0,0,0,0,0,22,0,0,0,0,0,0,12,0,35,0,0,0 | 0,11,0,0,0,14,43,0,0,0,0,0,35,33,11,0,0,0,35,0,0,0,0,0,0,0,13,0,0,28,0,0,14,0,0,0,0,0,0,37 | 0,0,0,19,0,0,0,0,0,0,25,0,0,41,28,0,33,0,0,0,0,0,0,0,0,0,0,0,18,0,0,0,0,0,0,0,0,0,0,0 | 0,0,0,0,28,49,0,29,0,41,0,0,0,0,0,0,0,0,0,0,0,31,0,0,0,0,0,14,0,0,24,0,0,19,48,0,0,21,0,0 | 18,0,0,0,0,19,0,0,0,0,0,0,37,0,0,14,38,34,0,0,0,0,33,19,0,0,13,0,0,0,12,0,0,0,0,0,0,19,35,0 | 0,0,49,0,0,14,26,0,31,0,21,0,0,0,0,0,0,0,0,0,27,0,0,0,0,0,0,0,40,38,0,49,16,50,0,0,0,0,14,31 | 0,0,0,0,0,0,0,11,0,0,0,0,0,0,0,0,0,0,0,48,0,0,0,15,0,0,0,0,0,0,38,0,0,0,0,0,0,0,28,0 | 0,0,0,0,0,31,0,0,0,0,0,0,0,41,0,0,0,0,50,0,0,0,23,0,45,0,0,44,0,48,50,0,0,0,0,21,17,0,0,0 | 0,0,0,0,0,0,0,0,0,0,0,0,29,0,27,30,0,18,0,0,0,23,0,17,0,0,0,15,0,0,0,0,0,0,0,0,15,28,12,0 | 0,0,0,0,0,0,0,0,0,23,0,0,0,50,0,0,0,0,0,0,13,48,0,0,0,0,0,26,0,0,0,0,10,0,0,0,0,0,0,0 | 0,13,0,0,0,0,0,0,0,25,25,0,0,0,15,0,39,0,0,38,0,0,0,0,0,0,0,0,0,0,47,0,0,0,0,0,0,10,42,15 | 0,0,0,0,0,0,0,0,0,0,0,0,0,0,0,0,0,14,0,0,0,0,0,23,16,0,17,0,0,0,0,0,46,42,11,32,0,0,0,35 | 0,0,0,24,45,0,48,0,0,0,0,17,0,0,10,0,15,0,0,0,0,42,0,43,0,0,38,24,0,0,0,0,0,0,0,40,0,0,12,40 | 0,0,0,0,0,0,26,37,0,0,33,0,0,0,0,29,0,46,0,36,0,15,0,0,0,0,0,0,0,47,0,0,0,0,0,0,0,0,0,15 | 0,50,0,0,38,0,0,0,0,0,0,0,0,0,0,50,0,45,0,32,0,0,10,0,0,0,0,0,0,0,28,0,0,38,16,23,0,0,30,12 | 49,0,0,0,0,0,0,0,0,0,0,0,38,0,0,0,0,14,0,0,0,0,0,0,0,0,0,0,0,0,21,0,0,25,41,35,0,0,23,0 | 43,0,0,0,40,0,47,0,0,0,0,0,0,0,23,0,0,0,0,0,0,0,0,34,35,42,0,38,0,0,10,0,36,0,47,0,16,14,0,0 | 0,0,21,0,17,0,0,0,33,15,0,0,21,0,0,0,43,0,0,0,42,0,0,0,15,0,0,34,49,10,0,36,0,0,0,0,0,0,0,0 | 31,0,0,0,0,0,0,0,48,0,13,0,0,0,0,0,0,0,0,0,0,0,24,25,0,0,0,0,0,0,22,0,0,0,41,0,0,0,32,0 | 16,42,0,0,0,0,16,0,12,0,0,0,0,0,0,0,30,0,0,0,0,0,0,0,0,0,0,36,0,0,0,0,0,0,0,0,0,0,0,0 | 13,0,0,0,35,0,15,0,0,0,0,0,0,0,0,0,0,0,15,0,0,24,15,0,0,12,0,0,0,0,47,0,0,0,0,0,0,0,0,0 | 0,0,0,0,0,22,0,0,0,0,0,0,0,0,0,0,0,0,12,33,0,10,0,0,35,14,30,0,43,0,0,0,0,32,0,0,0,34,0,40 | 22,0,0,46,0,0,19,0,0,24,0,0,0,0,0,0,38,0,0,0,23,0,0,0,0,0,0,0,0,0,0,0,42,20,0,0,19,0,26,0 | 35,0,22,27,0,0,0,0,0,0,0,0,0,19,0,0,0,50,0,0,0,0,0,0,18,0,21,0,0,0,0,0,0,0,36,0,0,0,0,0 | 0,0,0,0,0,50,50,0,0,20,0,0,27,0,0,12,0,0,0,0,0,0,37,11,19,23,0,0,0,0,0,0,0,0,23,0,0,0,0,0 | 0,33,0,0,0,0,0,18,32,0,0,0,0,10,0,27,0,0,0,0,0,0,0,0,41,21,0,0,0,0,0,0,0,0,0,0,38,0,0,40 | 0,34,0,15,0,0,0,0,0,0,0,0,0,24,0,0,40,0,0,0,41,0,31,0,0,15,40,0,0,0,0,0,0,0,0,0,0,0,0,0 | 0,15,0,0,0,0,0,0,0,0,0,0,23,0,0,25,0,0,0,0,0,0,0,0,0,25,0,0,31,0,0,0,23,0,0,0,0,0,0,30 | 0,23,0,27,0,0,50,0,0,0,0,0,0,0,43,0,0,0,0,21,0,0,0,0,30,0,0,50,11,50,12,26,0,39,0,25,0,0,0,0 | 0,0,0,38,0,0,0,32,24,0,0,0,18,0,0,50,0,0,0,0,41,0,0,0,46,0,0,0,0,0,0,14,0,17,0,0,0,24,46,0 | 46,0,16,0,0,24,0,0,19,35,0,0,0,0,0,0,0,0,0,0,0,0,38,0,0,0,48,0,0,0,10,0,0,0,11,0,0,0,0,0 | 0,0,0,0,0,0,0,0,0,0,48,0,0,21,0,0,0,0,0,0,0,0,0,0,0,0,24,0,0,0,32,0,46,0,0,0,0,0,0,0 | 0,0,0,31,0,0,0,0,31,0,38,0,0,0,26,26,0,0,0,0,0,0,0,0,0,0,14,41,0,24,0,0,0,41,37,0,0,18,0,0 |];
